\ Model Flujo de costo mínimo con conservación de flujo y capacidades_copy
\ LP format - for model browsing. Use MPS format to capture full model detail.
Minimize
 
Subject To
 Conservacion_Y: - x[D1,Y] - x[D2,Y] = -50
Bounds
 -infinity <= x[D1,Y] <= 20
 -infinity <= x[D2,Y] <= 25
End
